language Essence 1.3

letting class be function(1 --> 2, 2 --> 2, 3 --> 2, 4 --> 1)
letting deck_length be 15
letting deck_width be 63
letting length be function(1 --> 11, 2 --> 9, 3 --> 15, 4 --> 2)
letting n_classes be 2
letting n_containers be 4
letting separation be function({1, 2} --> 26)
letting width be function(1 --> 15, 2 --> 2, 3 --> 29, 4 --> 6)
